ilp_joint_2/output/conduction_ilp.lp
Maximize
  0.002571738371134 Z_123_1_0 + 0.00387556079112322 Z_123_1_1
   + 0.4561841884706677 Z_123_1_2 + 0.00244309037316745 Z_123_1_3
Subject To
 constraint1_1231: Z_123_1_0 + Z_123_1_1 + Z_123_1_2 + Z_123_1_3 <= 1
 constraint2_1230: Z_123_1_0 <= 1
 constraint2_1231: Z_123_1_1 <= 1
 constraint2_1232: Z_123_1_2 <= 1
 constraint2_1233: Z_123_1_3 <= 1
Bounds
Binaries
 Z_123_1_0 Z_123_1_1 Z_123_1_2 Z_123_1_3
End
