ilp_joint_2/output/conduction_ilp.sol
# Solution for model conduction_srl_ilp
# Objective value = 4.5618418847066766e-01
Z_123_1_0 0
Z_123_1_1 0
Z_123_1_2 1
Z_123_1_3 0
